22	3

10	7	10	

0	0	0	0	3	2	3	4	
1	3	5	2	2	5	6	
1	5	4	3	2	6	7	
6	5	2	2	2	7	8	
3	4	1	4	2	9	12	
3	5	5	4	2	9	11	
5	3	5	2	2	9	10	
4	2	4	4	2	9	10	
4	3	2	2	1	13	
3	3	2	4	1	14	
1	3	3	2	1	15	
2	4	1	4	2	13	16	
4	1	4	4	1	17	
1	2	2	2	1	19	
2	5	5	4	1	18	
1	1	5	4	1	17	
1	4	5	4	1	20	
5	3	2	3	2	20	21	
3	5	3	3	1	20	
2	2	4	6	1	22	
2	1	6	2	1	22	
0	0	0	0	0	
